CPXPARAM_MIP_Tolerances_MIPGap                   0
Lazy constraint(s) or lazy constraint callback is present.
    Disabling dual reductions (CPX_PARAM_REDUCE) in presolve.
    Disabling non-linear reductions (CPX_PARAM_PRELINEAR) in presolve.
         Disabling repeat represolve because of lazy constraint/incumbent callback.
Tried aggregator 1 time.
MIP Presolve eliminated 2316 rows and 4 columns.
MIP Presolve modified 3 coefficients.
Reduced MIP has 388 rows, 2384 columns, and 820 nonzeros.
Reduced MIP has 2072 binaries, 0 generals, 0 SOSs, and 0 indicators.
Presolve time = 0.00 sec. (1.48 ticks)
Probing time = 0.00 sec. (0.39 ticks)
Clique table members: 149.
MIP emphasis: balance optimality and feasibility.
MIP search method: traditional branch-and-cut.
Parallel mode: none, using 1 thread.
Root relaxation solution time = 0.00 sec. (1.16 ticks)

        Nodes                                         Cuts/
   Node  Left     Objective  IInf  Best Integer    Best Bound    ItCnt     Gap         Variable B NodeID Parent  Depth

      0     0        4.0000    22                      4.0000       22         
      0     0       18.0003     5                   Cuts: 134      208         
      0     0       19.0000     6                    Cuts: 19      215         
      0     0       19.0000    11                  MIRcuts: 6      224         
*     0+    0                           54.0000       19.0000            64.81%
*     0+    0                           19.0000       19.0000             0.00%
      0     0        cutoff             19.0000       19.0000      224    0.00%                        0             0
Elapsed time = 0.06 sec. (44.95 ticks, tree = 0.01 MB, solutions = 2)

Clique cuts applied:  90
Mixed integer rounding cuts applied:  26
User cuts applied:  142

Root node processing (before b&c):
  Real time             =    0.06 sec. (45.07 ticks)
Sequential b&c:
  Real time             =    0.00 sec. (0.00 ticks)
                          ------------
Total (root+branch&cut) =    0.06 sec. (45.07 ticks)
